NAME: n200q1000C.tsp, 200 nodes, semilla 222
COMMENT: Problema aleatorio de norma euclidea
DIMENSION: 200
CAPACITY: 1000
EDGE_WEIGHT_TYPE: EUC_2D
NODE_COORD_SECTION
1   0.0000   0.0000
2 302.0000 264.0000
3 -191.0000 -343.0000
4  64.0000 431.0000
5 -477.0000 -298.0000
6 -270.0000 -492.0000
7 -388.0000 287.0000
8  50.0000 274.0000
9 -378.0000 498.0000
10 186.0000  32.0000
11 -455.0000 -299.0000
12 -480.0000 -417.0000
13 -216.0000 112.0000
14  41.0000 -213.0000
15  95.0000 -480.0000
16 -488.0000 208.0000
17 -376.0000 -203.0000
18  97.0000 -161.0000
19 -370.0000 325.0000
20 -77.0000 -263.0000
21 -479.0000 -310.0000
22 -115.0000 -237.0000
23  84.0000 -246.0000
24 -240.0000 242.0000
25 147.0000 -289.0000
26 -387.0000 273.0000
27 417.0000  54.0000
28   9.0000 -111.0000
29 -367.0000 243.0000
30 198.0000 -351.0000
31 -205.0000 205.0000
32 -244.0000 -58.0000
33 -15.0000 157.0000
34 -136.0000 -284.0000
35 -222.0000  61.0000
36 483.0000 333.0000
37 -249.0000 -81.0000
38 134.0000 -230.0000
39  85.0000 -261.0000
40   4.0000  24.0000
41 -446.0000 333.0000
42  90.0000  52.0000
43 275.0000 414.0000
44 -206.0000 371.0000
45 181.0000 -382.0000
46 -146.0000 -45.0000
47 475.0000 -405.0000
48 -189.0000 -394.0000
49 384.0000 500.0000
50 -493.0000  -8.0000
51 -51.0000 -280.0000
52 -448.0000  94.0000
53 -379.0000 -453.0000
54 462.0000  33.0000
55 -450.0000 -215.0000
56 -392.0000 380.0000
57 283.0000 158.0000
58 -362.0000 402.0000
59 184.0000 -331.0000
60 -467.0000  28.0000
61 -370.0000 -378.0000
62 264.0000 -238.0000
63 -480.0000 -350.0000
64 -339.0000 399.0000
65 437.0000 -472.0000
66 -61.0000 170.0000
67 -426.0000 453.0000
68 403.0000 -86.0000
69 -110.0000 -281.0000
70 396.0000 -71.0000
71 -383.0000 -269.0000
72 -212.0000 253.0000
73 430.0000 496.0000
74 -173.0000 -469.0000
75 480.0000 -228.0000
76 114.0000 116.0000
77  66.0000 389.0000
78 460.0000 301.0000
79 354.0000 -142.0000
80 -245.0000 314.0000
81 415.0000 -373.0000
82 383.0000 163.0000
83 -409.0000  14.0000
84 235.0000 -55.0000
85 439.0000 -436.0000
86 -456.0000 474.0000
87 -76.0000  19.0000
88 -82.0000 -317.0000
89 -326.0000 341.0000
90 304.0000  54.0000
91 163.0000 -495.0000
92 -185.0000 221.0000
93 -70.0000 272.0000
94  90.0000 -323.0000
95 -167.0000 -157.0000
96 -299.0000 -330.0000
97 -57.0000 396.0000
98 -393.0000 290.0000
99 -330.0000 -14.0000
100 176.0000 132.0000
101 268.0000 120.0000
102 -477.0000 -373.0000
103 384.0000 384.0000
104  72.0000 -33.0000
105 -184.0000 132.0000
106 -275.0000 460.0000
107  41.0000 -211.0000
108  78.0000 -355.0000
109 -218.0000 -232.0000
110  43.0000 402.0000
111 -148.0000 -474.0000
112 -199.0000 -28.0000
113 -466.0000 -350.0000
114  -4.0000 -24.0000
115 -316.0000 321.0000
116 -485.0000 443.0000
117 497.0000 413.0000
118  28.0000 453.0000
119 -427.0000 466.0000
120 -215.0000 -111.0000
121  80.0000  61.0000
122 -405.0000 412.0000
123 -111.0000  73.0000
124 -193.0000 484.0000
125 -466.0000 427.0000
126  54.0000 -141.0000
127 276.0000 193.0000
128 -247.0000  52.0000
129 282.0000 423.0000
130 -364.0000 -179.0000
131  81.0000 266.0000
132   3.0000 -131.0000
133 134.0000 -87.0000
134  67.0000 192.0000
135 -357.0000 433.0000
136 218.0000 -439.0000
137 -30.0000 231.0000
138 -39.0000 -321.0000
139 -12.0000 403.0000
140 -400.0000 -373.0000
141 -478.0000 179.0000
142 403.0000 -391.0000
143 474.0000 429.0000
144 -284.0000 -235.0000
145 -61.0000 426.0000
146   2.0000 -168.0000
147 -28.0000 -97.0000
148 -216.0000 -109.0000
149   2.0000 -154.0000
150 192.0000 -277.0000
151 -287.0000 -179.0000
152 -238.0000 -187.0000
153 414.0000 268.0000
154 415.0000 -28.0000
155 -414.0000 429.0000
156 -317.0000 -319.0000
157 361.0000 -297.0000
158 -85.0000 -149.0000
159 -452.0000 187.0000
160 -221.0000  -9.0000
161  75.0000 123.0000
162 107.0000 -111.0000
163 -257.0000 447.0000
164 467.0000 316.0000
165 351.0000 347.0000
166 500.0000 -202.0000
167 105.0000 230.0000
168 433.0000  40.0000
169 -308.0000 -293.0000
170 -138.0000 -356.0000
171 203.0000 -371.0000
172 -257.0000 352.0000
173 -140.0000 -337.0000
174 -275.0000 -38.0000
175 106.0000 250.0000
176 189.0000 100.0000
177 -88.0000 194.0000
178 -23.0000 -182.0000
179 280.0000 -357.0000
180 -413.0000 -327.0000
181 243.0000 -465.0000
182 -66.0000 -118.0000
183 177.0000 -372.0000
184 -289.0000 -344.0000
185 203.0000 300.0000
186 -483.0000 -313.0000
187  95.0000 -451.0000
188 165.0000 -171.0000
189 -357.0000 -134.0000
190 -487.0000 421.0000
191 494.0000   1.0000
192 -342.0000  17.0000
193 -436.0000 463.0000
194 483.0000 -224.0000
195 208.0000 369.0000
196  72.0000 -183.0000
197 -369.0000 -20.0000
198 -321.0000   7.0000
199 258.0000 279.0000
200 -227.0000 -435.0000
DISPLAY_DATA_SECTION:
 1  250  250
 2  401  382
 3  154   78
 4  282  465
 5   11  101
 6  115    4
 7   56  393
 8  275  387
 9   61  499
10  343  266
11   22  100
12   10   41
13  142  306
14  270  143
15  297   10
16    6  354
17   62  148
18  298  169
19   65  412
20  211  118
21   10   95
22  192  131
23  292  127
24  130  371
25  323  105
26   56  386
27  458  277
28  254  194
29   66  371
30  349   74
31  147  352
32  128  221
33  242  328
34  182  108
35  139  280
36  491  416
37  125  209
38  317  135
39  292  119
40  252  262
41   27  416
42  295  276
43  387  457
44  147  435
45  340   59
46  177  227
47  487   47
48  155   53
49  442  500
50    3  246
51  224  110
52   26  297
53   60   23
54  481  266
55   25  142
56   54  440
57  391  329
58   69  451
59  342   84
60   16  264
61   65   61
62  382  131
63   10   75
64   80  449
65  468   14
66  219  335
67   37  476
68  451  207
69  195  109
70  448  214
71   58  115
72  144  376
73  465  498
74  163   15
75  490  136
76  307  308
77  283  444
78  480  400
79  427  179
80  127  407
81  457   63
82  441  331
83   45  257
84  367  222
85  469   32
86   22  487
87  212  259
88  209   91
89   87  420
90  402  277
91  331    2
92  157  360
93  215  386
94  295   88
95  166  171
96  100   85
97  221  448
98   53  395
99   85  243
100  338  316
101  384  310
102   11   63
103  442  442
104  286  233
105  158  316
106  112  480
107  270  144
108  289   72
109  141  134
110  271  451
111  176   13
112  150  236
113   17   75
114  248  238
115   92  410
116    7  471
117  498  456
118  264  476
119   36  483
120  142  194
121  290  280
122   47  456
123  194  286
124  153  492
125   17  463
126  277  179
127  388  346
128  126  276
129  391  461
130   68  160
131  290  383
132  251  184
133  317  206
134  283  346
135   71  466
136  359   30
137  235  365
138  230   89
139  244  451
140   50   63
141   11  339
142  451   54
143  487  464
144  108  132
145  219  463
146  251  166
147  236  201
148  142  195
149  251  173
150  346  111
151  106  160
152  131  156
153  457  384
154  457  236
155   43  464
156   91   90
157  430  101
158  207  175
159   24  343
160  139  245
161  287  311
162  303  194
163  121  473
164  483  408
165  425  423
166  500  149
167  302  365
168  466  270
169   96  103
170  181   72
171  351   64
172  121  426
173  180   81
174  112  231
175  303  375
176  344  300
177  206  347
178  238  159
179  390   71
180   43   86
181  371   17
182  217  191
183  338   64
184  105   78
185  351  400
186    8   93
187  297   24
188  332  164
189   71  183
190    6  460
191  497  250
192   79  258
193   32  481
194  491  138
195  354  434
196  286  158
197   65  240
198   89  253
199  379  389
200  136   32
DEMAND_SECTION
1 -4
2 -7
3 5
4 5
5 -4
6 0
7 0
8 -6
9 -1
10 1
11 -9
12 -7
13 0
14 9
15 -7
16 5
17 7
18 1
19 0
20 4
21 4
22 2
23 4
24 -3
25 5
26 5
27 7
28 3
29 -6
30 -6
31 -10
32 7
33 2
34 4
35 -2
36 2
37 9
38 -4
39 3
40 4
41 0
42 -9
43 -3
44 -1
45 9
46 -8
47 -2
48 8
49 -3
50 4
51 4
52 10
53 0
54 7
55 1
56 -6
57 -10
58 -1
59 -3
60 -7
61 -8
62 2
63 -9
64 7
65 3
66 -4
67 4
68 -3
69 9
70 1
71 8
72 1
73 -8
74 4
75 -5
76 -6
77 0
78 8
79 5
80 3
81 -3
82 4
83 5
84 4
85 3
86 0
87 1
88 4
89 7
90 -9
91 -10
92 0
93 -6
94 -4
95 -2
96 -1
97 0
98 -9
99 -6
100 3
101 9
102 3
103 -2
104 4
105 5
106 6
107 -10
108 0
109 -5
110 -7
111 -1
112 -3
113 0
114 3
115 -2
116 7
117 -1
118 -6
119 4
120 -4
121 8
122 3
123 -7
124 1
125 -5
126 0
127 8
128 7
129 -4
130 1
131 6
132 0
133 -7
134 2
135 0
136 1
137 8
138 4
139 1
140 -4
141 -6
142 2
143 -2
144 -2
145 -4
146 -5
147 5
148 -6
149 -8
150 -8
151 2
152 5
153 9
154 -1
155 -1
156 -2
157 -2
158 8
159 -5
160 -8
161 -10
162 3
163 8
164 0
165 0
166 3
167 7
168 -10
169 -7
170 7
171 9
172 0
173 8
174 -5
175 8
176 -4
177 -1
178 -3
179 5
180 5
181 2
182 -5
183 -4
184 1
185 0
186 -6
187 -6
188 1
189 9
190 -8
191 0
192 0
193 -3
194 3
195 -8
196 9
197 -9
198 5
199 -8
200 5
EOF